Route #1: 18 13 41 40 19 42 17 4 47
Route #2: 12 37 44 15 45 33 39 10 49 5 46
Route #3: 11 2 29 21 16 50 34 30 9 38
Route #4: 32 1 22 20 35 36 3 28 31 26 8
Route #5: 27 48 23 7 43 24 25 14 6
Cost 524.611
